Academic license - for non-commercial use only
Set parameter TimeLimit to value 7200

Gurobi Optimizer version 8.0.0 build v8.0.0rc0 (linux64)
Copyright (c) 2018, Gurobi Optimization, LLC

Read LP format model from file la09_flow.lp
Reading time = 1.46 seconds
: 58820 rows, 107476 columns, 3218151 nonzeros
Optimize a model with 58820 rows, 107476 columns and 3218151 nonzeros
Variable types: 0 continuous, 107476 integer (107475 binary)
Coefficient statistics:
  Matrix range     [1e+00, 1e+03]
  Objective range  [1e+00, 1e+00]
  Bounds range     [1e+00, 1e+03]
  RHS range        [1e+00, 1e+00]
Presolve removed 9556 rows and 9443 columns (presolve time = 5s) ...
Presolve removed 10807 rows and 10695 columns (presolve time = 11s) ...
Presolve removed 10807 rows and 10695 columns
Presolve time: 11.68s
Presolved: 48013 rows, 96781 columns, 3172630 nonzeros
Variable types: 0 continuous, 96781 integer (96780 binary)

Deterministic concurrent LP optimizer: dual simplex and barrier
Showing barrier log only...

Presolve removed 83 rows and 68 columns
Presolved: 47930 rows, 96713 columns, 3172449 nonzeros

Root barrier log...

Elapsed ordering time = 5s
Elapsed ordering time = 10s
Elapsed ordering time = 15s
Ordering time: 17.67s

Barrier statistics:
 AA' NZ     : 5.323e+06
 Factor NZ  : 2.061e+07 (roughly 230 MBytes of memory)
 Factor Ops : 2.492e+10 (roughly 1 second per iteration)
 Threads    : 1

                  Objective                Residual
Iter       Primal          Dual         Primal    Dual     Compl     Time
   0   1.66173704e+03 -6.86222977e+05  1.69e+04 1.67e-01  1.88e+02    41s
   1   1.38487100e+03 -6.85528526e+05  5.71e+03 2.67e-12  6.57e+01    44s
   2   1.15618112e+03 -5.90973195e+05  2.31e+03 4.03e-12  2.61e+01    47s
   3   1.02193434e+03 -4.62836823e+05  3.11e+02 2.97e-12  5.10e+00    50s
   4   1.00852070e+03 -1.81223709e+05  1.12e+02 3.28e-12  1.60e+00    53s
   5   1.00360494e+03 -7.52782116e+04  3.88e+01 2.00e-11  5.81e-01    57s
   6   1.00180256e+03 -1.95379777e+04  1.20e+01 2.60e-12  1.60e-01    60s
   7   1.00127296e+03 -7.79029882e+03  4.27e+00 1.19e-12  6.35e-02    63s
   8   1.00104805e+03 -5.67797557e+03  2.21e+00 1.11e-12  4.42e-02    66s
   9   9.54992722e+02 -3.89562656e+03  1.03e+00 8.24e-13  2.90e-02    70s
  10   8.34320119e+02 -9.80971089e+02  1.13e-01 3.55e-13  9.42e-03    73s
  11   7.55428160e+02  2.38604503e+01  1.34e-02 2.45e-13  3.70e-03    77s
  12   6.88643447e+02  5.45963451e+02  1.51e-03 1.25e-13  7.20e-04    80s
  13   6.55648304e+02  6.03050811e+02  3.62e-04 4.05e-14  2.65e-04    84s
  14   6.41933867e+02  6.26412301e+02  7.80e-05 5.52e-14  7.83e-05    88s
  15   6.40218777e+02  6.29658407e+02  5.78e-05 5.22e-14  5.33e-05    91s
  16   6.37619755e+02  6.31595603e+02  2.62e-05 5.42e-14  3.04e-05    95s
  17   6.35828968e+02  6.33871913e+02  8.80e-06 4.87e-14  9.87e-06    99s
  18   6.34985533e+02  6.34455869e+02  2.11e-06 5.92e-14  2.67e-06   103s
  19   6.34683016e+02  6.34583830e+02  2.55e-07 7.50e-14  5.00e-07   107s
  20   6.34641248e+02  6.34611128e+02  7.74e-08 5.84e-14  1.52e-07   111s
  21   6.34624127e+02  6.34617411e+02  1.22e-08 6.53e-14  3.39e-08   115s
  22   6.34621175e+02  6.34619319e+02  2.77e-09 8.19e-14  9.36e-09   119s
  23   6.34620684e+02  6.34619875e+02  1.32e-09 5.68e-14  4.08e-09   122s
  24   6.34620429e+02  6.34620072e+02  6.93e-10 6.10e-14  1.80e-09   125s
  25   6.34620302e+02  6.34620161e+02  4.65e-10 1.14e-13  7.12e-10   129s
  26   6.34620243e+02  6.34620179e+02  1.07e-08 4.23e-14  3.24e-10   132s
  27   6.34620241e+02  6.34620180e+02  2.49e-08 6.83e-14  3.09e-10   135s
  28   6.34620223e+02  6.34620186e+02  1.44e-08 4.38e-14  1.84e-10   138s
  29   6.34620209e+02  6.34620192e+02  6.90e-09 4.88e-14  8.83e-11   141s
  30   6.34620203e+02  6.34620197e+02  2.18e-08 7.33e-14  3.33e-11   144s
  31   6.34620203e+02  6.34620197e+02  2.13e-08 1.17e-13  3.29e-11   148s
  32   6.34620201e+02  6.34620197e+02  1.89e-08 6.01e-14  2.09e-11   151s

Barrier solved model in 32 iterations and 150.68 seconds
Optimal objective 6.34620201e+02


Root crossover log...

   30379 DPushes remaining with DInf 2.7624097e+00               152s
    2726 DPushes remaining with DInf 8.8659187e-01               157s
    1811 DPushes remaining with DInf 3.9492074e+02               160s
      70 DPushes remaining with DInf 1.3000327e+03               166s
       0 DPushes remaining with DInf 1.1780846e+03               167s

    4548 PPushes remaining with PInf 9.6268213e-04               167s
       0 PPushes remaining with PInf 4.1767013e-03               172s

  Push phase complete: Pinf 4.1767013e-03, Dinf 1.1130365e+04    172s


Root simplex log...

Iteration    Objective       Primal Inf.    Dual Inf.      Time
   34846    6.3461998e+02   0.000000e+00   1.113036e+04    172s
   35216    6.3461998e+02   0.000000e+00   5.941743e+03    176s
   35686    6.3461997e+02   0.000000e+00   1.242221e+04    181s
   36076    6.3461995e+02   0.000000e+00   7.237615e+02    186s
   36466    6.3461994e+02   0.000000e+00   3.541053e+04    192s
   36736    6.3461994e+02   0.000000e+00   7.107861e+02    195s
   37126    6.3461993e+02   0.000000e+00   8.170248e+02    201s
   37526    6.3461992e+02   0.000000e+00   1.509271e+04    206s
   37836    6.3461989e+02   0.000000e+00   7.591097e+02    213s
   37996    6.3461988e+02   0.000000e+00   2.258310e+03    217s
   38156    6.3461987e+02   0.000000e+00   2.195787e+03    220s
   38476    6.3461985e+02   0.000000e+00   2.988468e+02    227s
   38636    6.3461985e+02   0.000000e+00   2.237488e+03    231s
   38966    6.3461984e+02   0.000000e+00   9.144532e+01    237s
   39136    6.3461983e+02   0.000000e+00   3.109910e+02    241s
   39496    6.3461983e+02   0.000000e+00   1.380070e+02    247s
   39696    6.3461982e+02   0.000000e+00   3.044900e+01    251s
   39976    6.3461982e+02   0.000000e+00   1.642761e+01    255s
   40296    6.3461982e+02   0.000000e+00   3.438755e-01    260s
   40414    6.3462020e+02   0.000000e+00   0.000000e+00    263s
   40414    6.3462020e+02   0.000000e+00   0.000000e+00    264s
Concurrent spin time: 16.45s

Solved with barrier

Root relaxation: objective 6.346202e+02, 40414 iterations, 262.35 seconds
Total elapsed time = 303.97s
Total elapsed time = 309.46s
Total elapsed time = 313.42s
Total elapsed time = 316.38s

    Nodes    |    Current Node    |     Objective Bounds      |     Work
 Expl Unexpl |  Obj  Depth IntInf | Incumbent    BestBd   Gap | It/Node Time

     0     0  634.62020    0 12007          -  634.62020      -     -  321s
     0     0  635.00000    0 11783          -  635.00000      -     - 2914s
     0     0  635.00000    0 11840          -  635.00000      -     - 3017s
     0     0          -    0               -  635.00000      -     - 7200s

Cutting planes:
  Implied bound: 1
  Clique: 8
  MIR: 4
  StrongCG: 11

Explored 1 nodes (913260 simplex iterations) in 7200.01 seconds
Thread count was 4 (of 4 available processors)

Solution count 0

Time limit reached
Best objective -, best bound 6.350000000000e+02, gap -

Unable to retrieve attribute 'X'

